c File: flat50_3_0.col
c
c SOURCE: Joseph Culberson (joe@cs.ualberta.ca)
c DESCRIPTION: Quasi-random coloring problem
c              generated with flatness = 0
c                             probability = 0.139
c                             known coloring = 3
c                             random seed = 1988
c              Creation Date:  Tue Jun  9 12:22:54 1998
c Maximum degree = 8 Minimum degree = 0
c p edge 50 115
c cnf created by edge2cnf
p cnf 150 545
-1 -2 0
-1 -3 0
-2 -3 0
1 2 3 0
-4 -5 0
-4 -6 0
-5 -6 0
4 5 6 0
-7 -8 0
-7 -9 0
-8 -9 0
7 8 9 0
-10 -11 0
-10 -12 0
-11 -12 0
10 11 12 0
-13 -14 0
-13 -15 0
-14 -15 0
13 14 15 0
-16 -17 0
-16 -18 0
-17 -18 0
16 17 18 0
-19 -20 0
-19 -21 0
-20 -21 0
19 20 21 0
-22 -23 0
-22 -24 0
-23 -24 0
22 23 24 0
-25 -26 0
-25 -27 0
-26 -27 0
25 26 27 0
-28 -29 0
-28 -30 0
-29 -30 0
28 29 30 0
-31 -32 0
-31 -33 0
-32 -33 0
31 32 33 0
-34 -35 0
-34 -36 0
-35 -36 0
34 35 36 0
-37 -38 0
-37 -39 0
-38 -39 0
37 38 39 0
-40 -41 0
-40 -42 0
-41 -42 0
40 41 42 0
-43 -44 0
-43 -45 0
-44 -45 0
43 44 45 0
-46 -47 0
-46 -48 0
-47 -48 0
46 47 48 0
-49 -50 0
-49 -51 0
-50 -51 0
49 50 51 0
-52 -53 0
-52 -54 0
-53 -54 0
52 53 54 0
-55 -56 0
-55 -57 0
-56 -57 0
55 56 57 0
-58 -59 0
-58 -60 0
-59 -60 0
58 59 60 0
-61 -62 0
-61 -63 0
-62 -63 0
61 62 63 0
-64 -65 0
-64 -66 0
-65 -66 0
64 65 66 0
-67 -68 0
-67 -69 0
-68 -69 0
67 68 69 0
-70 -71 0
-70 -72 0
-71 -72 0
70 71 72 0
-73 -74 0
-73 -75 0
-74 -75 0
73 74 75 0
-76 -77 0
-76 -78 0
-77 -78 0
76 77 78 0
-79 -80 0
-79 -81 0
-80 -81 0
79 80 81 0
-82 -83 0
-82 -84 0
-83 -84 0
82 83 84 0
-85 -86 0
-85 -87 0
-86 -87 0
85 86 87 0
-88 -89 0
-88 -90 0
-89 -90 0
88 89 90 0
-91 -92 0
-91 -93 0
-92 -93 0
91 92 93 0
-94 -95 0
-94 -96 0
-95 -96 0
94 95 96 0
-97 -98 0
-97 -99 0
-98 -99 0
97 98 99 0
-100 -101 0
-100 -102 0
-101 -102 0
100 101 102 0
-103 -104 0
-103 -105 0
-104 -105 0
103 104 105 0
-106 -107 0
-106 -108 0
-107 -108 0
106 107 108 0
-109 -110 0
-109 -111 0
-110 -111 0
109 110 111 0
-112 -113 0
-112 -114 0
-113 -114 0
112 113 114 0
-115 -116 0
-115 -117 0
-116 -117 0
115 116 117 0
-118 -119 0
-118 -120 0
-119 -120 0
118 119 120 0
-121 -122 0
-121 -123 0
-122 -123 0
121 122 123 0
-124 -125 0
-124 -126 0
-125 -126 0
124 125 126 0
-127 -128 0
-127 -129 0
-128 -129 0
127 128 129 0
-130 -131 0
-130 -132 0
-131 -132 0
130 131 132 0
-133 -134 0
-133 -135 0
-134 -135 0
133 134 135 0
-136 -137 0
-136 -138 0
-137 -138 0
136 137 138 0
-139 -140 0
-139 -141 0
-140 -141 0
139 140 141 0
-142 -143 0
-142 -144 0
-143 -144 0
142 143 144 0
-145 -146 0
-145 -147 0
-146 -147 0
145 146 147 0
-148 -149 0
-148 -150 0
-149 -150 0
148 149 150 0
-61 -1 0
-62 -2 0
-63 -3 0
-76 -1 0
-77 -2 0
-78 -3 0
-82 -1 0
-83 -2 0
-84 -3 0
-85 -1 0
-86 -2 0
-87 -3 0
-127 -1 0
-128 -2 0
-129 -3 0
-52 -4 0
-53 -5 0
-54 -6 0
-64 -4 0
-65 -5 0
-66 -6 0
-76 -4 0
-77 -5 0
-78 -6 0
-97 -4 0
-98 -5 0
-99 -6 0
-136 -4 0
-137 -5 0
-138 -6 0
-145 -4 0
-146 -5 0
-147 -6 0
-52 -7 0
-53 -8 0
-54 -9 0
-61 -7 0
-62 -8 0
-63 -9 0
-85 -7 0
-86 -8 0
-87 -9 0
-88 -7 0
-89 -8 0
-90 -9 0
-106 -7 0
-107 -8 0
-108 -9 0
-118 -7 0
-119 -8 0
-120 -9 0
-52 -10 0
-53 -11 0
-54 -12 0
-73 -10 0
-74 -11 0
-75 -12 0
-91 -10 0
-92 -11 0
-93 -12 0
-136 -10 0
-137 -11 0
-138 -12 0
-64 -13 0
-65 -14 0
-66 -15 0
-130 -13 0
-131 -14 0
-132 -15 0
-142 -13 0
-143 -14 0
-144 -15 0
-148 -13 0
-149 -14 0
-150 -15 0
-73 -16 0
-74 -17 0
-75 -18 0
-106 -16 0
-107 -17 0
-108 -18 0
-124 -16 0
-125 -17 0
-126 -18 0
-67 -19 0
-68 -20 0
-69 -21 0
-109 -19 0
-110 -20 0
-111 -21 0
-112 -19 0
-113 -20 0
-114 -21 0
-142 -22 0
-143 -23 0
-144 -24 0
-82 -25 0
-83 -26 0
-84 -27 0
-112 -25 0
-113 -26 0
-114 -27 0
-124 -25 0
-125 -26 0
-126 -27 0
-130 -25 0
-131 -26 0
-132 -27 0
-58 -28 0
-59 -29 0
-60 -30 0
-61 -28 0
-62 -29 0
-63 -30 0
-88 -28 0
-89 -29 0
-90 -30 0
-94 -28 0
-95 -29 0
-96 -30 0
-136 -28 0
-137 -29 0
-138 -30 0
-142 -28 0
-143 -29 0
-144 -30 0
-76 -31 0
-77 -32 0
-78 -33 0
-85 -31 0
-86 -32 0
-87 -33 0
-109 -31 0
-110 -32 0
-111 -33 0
-112 -31 0
-113 -32 0
-114 -33 0
-148 -31 0
-149 -32 0
-150 -33 0
-55 -34 0
-56 -35 0
-57 -36 0
-109 -34 0
-110 -35 0
-111 -36 0
-115 -34 0
-116 -35 0
-117 -36 0
-136 -34 0
-137 -35 0
-138 -36 0
-61 -37 0
-62 -38 0
-63 -39 0
-73 -37 0
-74 -38 0
-75 -39 0
-85 -37 0
-86 -38 0
-87 -39 0
-91 -37 0
-92 -38 0
-93 -39 0
-130 -37 0
-131 -38 0
-132 -39 0
-142 -37 0
-143 -38 0
-144 -39 0
-67 -40 0
-68 -41 0
-69 -42 0
-88 -40 0
-89 -41 0
-90 -42 0
-109 -40 0
-110 -41 0
-111 -42 0
-127 -40 0
-128 -41 0
-129 -42 0
-130 -40 0
-131 -41 0
-132 -42 0
-145 -40 0
-146 -41 0
-147 -42 0
-55 -43 0
-56 -44 0
-57 -45 0
-94 -43 0
-95 -44 0
-96 -45 0
-97 -43 0
-98 -44 0
-99 -45 0
-112 -43 0
-113 -44 0
-114 -45 0
-133 -43 0
-134 -44 0
-135 -45 0
-55 -46 0
-56 -47 0
-57 -48 0
-76 -46 0
-77 -47 0
-78 -48 0
-79 -46 0
-80 -47 0
-81 -48 0
-100 -46 0
-101 -47 0
-102 -48 0
-124 -46 0
-125 -47 0
-126 -48 0
-148 -46 0
-149 -47 0
-150 -48 0
-64 -49 0
-65 -50 0
-66 -51 0
-124 -49 0
-125 -50 0
-126 -51 0
-133 -49 0
-134 -50 0
-135 -51 0
-127 -52 0
-128 -53 0
-129 -54 0
-145 -52 0
-146 -53 0
-147 -54 0
-127 -55 0
-128 -56 0
-129 -57 0
-133 -55 0
-134 -56 0
-135 -57 0
-106 -58 0
-107 -59 0
-108 -60 0
-115 -61 0
-116 -62 0
-117 -63 0
-118 -61 0
-119 -62 0
-120 -63 0
-130 -61 0
-131 -62 0
-132 -63 0
-145 -61 0
-146 -62 0
-147 -63 0
-130 -64 0
-131 -65 0
-132 -66 0
-148 -64 0
-149 -65 0
-150 -66 0
-106 -67 0
-107 -68 0
-108 -69 0
-109 -67 0
-110 -68 0
-111 -69 0
-118 -67 0
-119 -68 0
-120 -69 0
-145 -67 0
-146 -68 0
-147 -69 0
-106 -70 0
-107 -71 0
-108 -72 0
-109 -70 0
-110 -71 0
-111 -72 0
-115 -70 0
-116 -71 0
-117 -72 0
-142 -70 0
-143 -71 0
-144 -72 0
-112 -73 0
-113 -74 0
-114 -75 0
-115 -73 0
-116 -74 0
-117 -75 0
-118 -73 0
-119 -74 0
-120 -75 0
-124 -73 0
-125 -74 0
-126 -75 0
-112 -76 0
-113 -77 0
-114 -78 0
-130 -76 0
-131 -77 0
-132 -78 0
-136 -76 0
-137 -77 0
-138 -78 0
-103 -79 0
-104 -80 0
-105 -81 0
-130 -82 0
-131 -83 0
-132 -84 0
-142 -82 0
-143 -83 0
-144 -84 0
-139 -88 0
-140 -89 0
-141 -90 0
-127 -91 0
-128 -92 0
-129 -93 0
-106 -94 0
-107 -95 0
-108 -96 0
-118 -97 0
-119 -98 0
-120 -99 0
-124 -97 0
-125 -98 0
-126 -99 0
-133 -97 0
-134 -98 0
-135 -99 0
-139 -97 0
-140 -98 0
-141 -99 0
-115 -100 0
-116 -101 0
-117 -102 0
-133 -100 0
-134 -101 0
-135 -102 0
